\ Model Cl_25_Ins_8.lp
\ LP format - for model browsing. Use MPS format to capture full model detail.
Maximize
 
Subject To
 obj1: y[0] = 0
 obj2: y[1] = 0
 obj1_Exp: - y[0] + 96 x[0] + 95 x[1] + 95 x[2] + 93 x[3] + 93 x[4]
   + 90 x[5] + 89 x[6] + 87 x[7] + 87 x[8] + 84 x[9] + 76 x[10] + 61 x[11]
   + 59 x[12] + 56 x[13] + 52 x[14] + 48 x[15] + 48 x[16] + 45 x[17]
   + 42 x[18] + 32 x[19] + 31 x[20] + 28 x[21] + 23 x[22] + 20 x[23]
   + 12 x[24] = 0
 obj2_Exp: - y[1] + 5 x[0] + 7 x[1] + 18 x[2] + 81 x[3] + 26 x[4] + 71 x[5]
   + 65 x[6] + 95 x[7] + 37 x[8] + 69 x[9] + 35 x[10] + 27 x[11] + 18 x[12]
   + 37 x[13] + 17 x[14] + 61 x[15] + 54 x[16] + 68 x[17] + 73 x[18]
   + 21 x[19] + 95 x[20] + 37 x[21] + 84 x[22] + 7 x[23] + 24 x[24] = 0
 Budget: 106 x[0] + 105 x[1] + 105 x[2] + 103 x[3] + 103 x[4] + 100 x[5]
   + 99 x[6] + 97 x[7] + 97 x[8] + 94 x[9] + 86 x[10] + 71 x[11] + 69 x[12]
   + 66 x[13] + 62 x[14] + 58 x[15] + 58 x[16] + 55 x[17] + 52 x[18]
   + 42 x[19] + 41 x[20] + 38 x[21] + 33 x[22] + 30 x[23] + 22 x[24]
   <= 729
Bounds
Binaries
 x[0] x[1] x[2] x[3] x[4] x[5] x[6] x[7] x[8] x[9] x[10] x[11] x[12] x[13]
 x[14] x[15] x[16] x[17] x[18] x[19] x[20] x[21] x[22] x[23] x[24]
Generals
 y[0] y[1]
End
